05-breathing-led/breathing/model/design_smt2.smt2
; SMT-LIBv2 description generated by Yosys 0.57+268 (git sha1 47ca09a01, clang++ 18.1.8 -fPIC -O3)
; yosys-smt2-module breathing
(declare-sort |breathing_s| 0)
(declare-fun |breathing_is| (|breathing_s|) Bool)
; yosys-smt2-witness {"offset": 0, "path": ["$auto$async2sync.cc:107:execute$103"], "smtname": 0, "smtoffset": 0, "type": "reg", "width": 1}
(declare-fun |breathing#0| (|breathing_s|) (_ BitVec 1)) ; $auto$async2sync.cc:107:execute$103
; yosys-smt2-register $auto$async2sync.cc:107:execute$103 1
(define-fun |breathing_n $auto$async2sync.cc:107:execute$103| ((state |breathing_s|)) Bool (= ((_ extract 0 0) (|breathing#0| state)) #b1))
; yosys-smt2-witness {"offset": 0, "path": ["$auto$async2sync.cc:107:execute$109"], "smtname": 1, "smtoffset": 0, "type": "reg", "width": 1}
(declare-fun |breathing#1| (|breathing_s|) (_ BitVec 1)) ; $auto$async2sync.cc:107:execute$109
; yosys-smt2-register $auto$async2sync.cc:107:execute$109 1
(define-fun |breathing_n $auto$async2sync.cc:107:execute$109| ((state |breathing_s|)) Bool (= ((_ extract 0 0) (|breathing#1| state)) #b1))
; yosys-smt2-witness {"offset": 0, "path": ["$auto$async2sync.cc:107:execute$91"], "smtname": 2, "smtoffset": 0, "type": "reg", "width": 1}
(declare-fun |breathing#2| (|breathing_s|) (_ BitVec 1)) ; $auto$async2sync.cc:107:execute$91
; yosys-smt2-register $auto$async2sync.cc:107:execute$91 1
(define-fun |breathing_n $auto$async2sync.cc:107:execute$91| ((state |breathing_s|)) Bool (= ((_ extract 0 0) (|breathing#2| state)) #b1))
; yosys-smt2-witness {"offset": 0, "path": ["$auto$async2sync.cc:107:execute$97"], "smtname": 3, "smtoffset": 0, "type": "reg", "width": 1}
(declare-fun |breathing#3| (|breathing_s|) (_ BitVec 1)) ; $auto$async2sync.cc:107:execute$97
; yosys-smt2-register $auto$async2sync.cc:107:execute$97 1
(define-fun |breathing_n $auto$async2sync.cc:107:execute$97| ((state |breathing_s|)) Bool (= ((_ extract 0 0) (|breathing#3| state)) #b1))
; yosys-smt2-witness {"offset": 0, "path": ["$auto$async2sync.cc:116:execute$101"], "smtname": 4, "smtoffset": 0, "type": "reg", "width": 1}
(declare-fun |breathing#4| (|breathing_s|) (_ BitVec 1)) ; $auto$async2sync.cc:116:execute$101
; yosys-smt2-register $auto$async2sync.cc:116:execute$101 1
(define-fun |breathing_n $auto$async2sync.cc:116:execute$101| ((state |breathing_s|)) Bool (= ((_ extract 0 0) (|breathing#4| state)) #b1))
; yosys-smt2-witness {"offset": 0, "path": ["$auto$async2sync.cc:116:execute$107"], "smtname": 5, "smtoffset": 0, "type": "reg", "width": 1}
(declare-fun |breathing#5| (|breathing_s|) (_ BitVec 1)) ; $auto$async2sync.cc:116:execute$107
; yosys-smt2-register $auto$async2sync.cc:116:execute$107 1
(define-fun |breathing_n $auto$async2sync.cc:116:execute$107| ((state |breathing_s|)) Bool (= ((_ extract 0 0) (|breathing#5| state)) #b1))
; yosys-smt2-witness {"offset": 0, "path": ["$auto$async2sync.cc:116:execute$113"], "smtname": 6, "smtoffset": 0, "type": "reg", "width": 1}
(declare-fun |breathing#6| (|breathing_s|) (_ BitVec 1)) ; $auto$async2sync.cc:116:execute$113
; yosys-smt2-register $auto$async2sync.cc:116:execute$113 1
(define-fun |breathing_n $auto$async2sync.cc:116:execute$113| ((state |breathing_s|)) Bool (= ((_ extract 0 0) (|breathing#6| state)) #b1))
; yosys-smt2-witness {"offset": 0, "path": ["$auto$async2sync.cc:116:execute$95"], "smtname": 7, "smtoffset": 0, "type": "reg", "width": 1}
(declare-fun |breathing#7| (|breathing_s|) (_ BitVec 1)) ; $auto$async2sync.cc:116:execute$95
; yosys-smt2-register $auto$async2sync.cc:116:execute$95 1
(define-fun |breathing_n $auto$async2sync.cc:116:execute$95| ((state |breathing_s|)) Bool (= ((_ extract 0 0) (|breathing#7| state)) #b1))
; yosys-smt2-anyinit breathing#8 1 breathing.v:79.9-97.12
; yosys-smt2-witness {"offset": 0, "path": ["\\_witness_", "\\anyinit_procdff_80"], "smtname": 8, "smtoffset": 0, "type": "init", "width": 1}
(declare-fun |breathing#8| (|breathing_s|) (_ BitVec 1)) ; \_witness_.anyinit_procdff_80
; yosys-smt2-register _witness_.anyinit_procdff_80 1
; yosys-smt2-wire _witness_.anyinit_procdff_80 1
(define-fun |breathing_n _witness_.anyinit_procdff_80| ((state |breathing_s|)) Bool (= ((_ extract 0 0) (|breathing#8| state)) #b1))
; yosys-smt2-anyinit breathing#9 8 breathing.v:79.9-97.12
; yosys-smt2-witness {"offset": 0, "path": ["\\_witness_", "\\anyinit_procdff_81"], "smtname": 9, "smtoffset": 0, "type": "init", "width": 8}
(declare-fun |breathing#9| (|breathing_s|) (_ BitVec 8)) ; \_witness_.anyinit_procdff_81
; yosys-smt2-register _witness_.anyinit_procdff_81 8
; yosys-smt2-wire _witness_.anyinit_procdff_81 8
(define-fun |breathing_n _witness_.anyinit_procdff_81| ((state |breathing_s|)) (_ BitVec 8) (|breathing#9| state))
; yosys-smt2-anyinit breathing#10 1 breathing.v:79.9-97.12
; yosys-smt2-witness {"offset": 0, "path": ["\\_witness_", "\\anyinit_procdff_82"], "smtname": 10, "smtoffset": 0, "type": "init", "width": 1}
(declare-fun |breathing#10| (|breathing_s|) (_ BitVec 1)) ; \_witness_.anyinit_procdff_82
; yosys-smt2-register _witness_.anyinit_procdff_82 1
; yosys-smt2-wire _witness_.anyinit_procdff_82 1
(define-fun |breathing_n _witness_.anyinit_procdff_82| ((state |breathing_s|)) Bool (= ((_ extract 0 0) (|breathing#10| state)) #b1))
; yosys-smt2-anyinit breathing#11 8 breathing.v:79.9-97.12
; yosys-smt2-witness {"offset": 0, "path": ["\\_witness_", "\\anyinit_procdff_83"], "smtname": 11, "smtoffset": 0, "type": "init", "width": 8}
(declare-fun |breathing#11| (|breathing_s|) (_ BitVec 8)) ; \_witness_.anyinit_procdff_83
; yosys-smt2-register _witness_.anyinit_procdff_83 8
; yosys-smt2-wire _witness_.anyinit_procdff_83 8
(define-fun |breathing_n _witness_.anyinit_procdff_83| ((state |breathing_s|)) (_ BitVec 8) (|breathing#11| state))
; yosys-smt2-anyinit breathing#12 1 breathing.v:79.9-97.12
; yosys-smt2-witness {"offset": 0, "path": ["\\_witness_", "\\anyinit_procdff_84"], "smtname": 12, "smtoffset": 0, "type": "init", "width": 1}
(declare-fun |breathing#12| (|breathing_s|) (_ BitVec 1)) ; \_witness_.anyinit_procdff_84
; yosys-smt2-register _witness_.anyinit_procdff_84 1
; yosys-smt2-wire _witness_.anyinit_procdff_84 1
(define-fun |breathing_n _witness_.anyinit_procdff_84| ((state |breathing_s|)) Bool (= ((_ extract 0 0) (|breathing#12| state)) #b1))
; yosys-smt2-anyinit breathing#13 8 breathing.v:79.9-97.12
; yosys-smt2-witness {"offset": 0, "path": ["\\_witness_", "\\anyinit_procdff_85"], "smtname": 13, "smtoffset": 0, "type": "init", "width": 8}
(declare-fun |breathing#13| (|breathing_s|) (_ BitVec 8)) ; \_witness_.anyinit_procdff_85
; yosys-smt2-register _witness_.anyinit_procdff_85 8
; yosys-smt2-wire _witness_.anyinit_procdff_85 8
(define-fun |breathing_n _witness_.anyinit_procdff_85| ((state |breathing_s|)) (_ BitVec 8) (|breathing#13| state))
; yosys-smt2-anyinit breathing#14 1 breathing.v:79.9-97.12
; yosys-smt2-witness {"offset": 0, "path": ["\\_witness_", "\\anyinit_procdff_86"], "smtname": 14, "smtoffset": 0, "type": "init", "width": 1}
(declare-fun |breathing#14| (|breathing_s|) (_ BitVec 1)) ; \_witness_.anyinit_procdff_86
; yosys-smt2-register _witness_.anyinit_procdff_86 1
; yosys-smt2-wire _witness_.anyinit_procdff_86 1
(define-fun |breathing_n _witness_.anyinit_procdff_86| ((state |breathing_s|)) Bool (= ((_ extract 0 0) (|breathing#14| state)) #b1))
; yosys-smt2-anyinit breathing#15 8 breathing.v:79.9-97.12
; yosys-smt2-witness {"offset": 0, "path": ["\\_witness_", "\\anyinit_procdff_87"], "smtname": 15, "smtoffset": 0, "type": "init", "width": 8}
(declare-fun |breathing#15| (|breathing_s|) (_ BitVec 8)) ; \_witness_.anyinit_procdff_87
; yosys-smt2-register _witness_.anyinit_procdff_87 8
; yosys-smt2-wire _witness_.anyinit_procdff_87 8
(define-fun |breathing_n _witness_.anyinit_procdff_87| ((state |breathing_s|)) (_ BitVec 8) (|breathing#15| state))
; yosys-smt2-witness {"offset": 0, "path": ["\\breath_counter"], "smtname": 16, "smtoffset": 0, "type": "reg", "width": 27}
(declare-fun |breathing#16| (|breathing_s|) (_ BitVec 27)) ; \breath_counter
; yosys-smt2-register breath_counter 27
; yosys-smt2-wire breath_counter 27
(define-fun |breathing_n breath_counter| ((state |breathing_s|)) (_ BitVec 27) (|breathing#16| state))
(define-fun |breathing#17| ((state |breathing_s|)) (_ BitVec 8) (bvnot ((_ extract 25 18) (|breathing#16| state)))) ; $not$breathing.v:61$13_Y
(define-fun |breathing#18| ((state |breathing_s|)) (_ BitVec 8) (ite (= ((_ extract 26 26) (|breathing#16| state)) #b1) (|breathing#17| state) ((_ extract 25 18) (|breathing#16| state)))) ; \brightness
; yosys-smt2-wire brightness 8
(define-fun |breathing_n brightness| ((state |breathing_s|)) (_ BitVec 8) (|breathing#18| state))
; yosys-smt2-anyseq breathing#19 1 $auto$setundef.cc:348:execute$161
; yosys-smt2-witness {"offset": 0, "path": ["\\clk"], "smtname": 19, "smtoffset": 0, "type": "seq", "width": 1}
(declare-fun |breathing#19| (|breathing_s|) (_ BitVec 1)) ; \clk
; yosys-smt2-wire clk 1
; yosys-smt2-clock clk posedge
(define-fun |breathing_n clk| ((state |breathing_s|)) Bool (= ((_ extract 0 0) (|breathing#19| state)) #b1))
; yosys-smt2-wire direction 1
(define-fun |breathing_n direction| ((state |breathing_s|)) Bool (= ((_ extract 26 26) (|breathing#16| state)) #b1))
; yosys-smt2-witness {"offset": 0, "path": ["\\f_past_valid"], "smtname": 20, "smtoffset": 0, "type": "reg", "width": 1}
(declare-fun |breathing#20| (|breathing_s|) (_ BitVec 1)) ; \f_past_valid
; yosys-smt2-register f_past_valid 1
; yosys-smt2-wire f_past_valid 1
(define-fun |breathing_n f_past_valid| ((state |breathing_s|)) Bool (= ((_ extract 0 0) (|breathing#20| state)) #b1))
; yosys-smt2-witness {"offset": 0, "path": ["\\pwm_counter"], "smtname": 21, "smtoffset": 0, "type": "reg", "width": 8}
(declare-fun |breathing#21| (|breathing_s|) (_ BitVec 8)) ; \pwm_counter
(define-fun |breathing#22| ((state |breathing_s|)) Bool (bvult (|breathing#21| state) (|breathing#18| state))) ; \led
; yosys-smt2-output led 1
; yosys-smt2-wire led 1
(define-fun |breathing_n led| ((state |breathing_s|)) Bool (|breathing#22| state))
; yosys-smt2-wire magnitude 8
(define-fun |breathing_n magnitude| ((state |breathing_s|)) (_ BitVec 8) ((_ extract 25 18) (|breathing#16| state)))
; yosys-smt2-register pwm_counter 8
; yosys-smt2-wire pwm_counter 8
(define-fun |breathing_n pwm_counter| ((state |breathing_s|)) (_ BitVec 8) (|breathing#21| state))
(define-fun |breathing#23| ((state |breathing_s|)) (_ BitVec 1) (bvnot (|breathing#19| state))) ; $auto$rtlil.cc:3135:Not$164
; yosys-smt2-assume 0 $auto$formalff.cc:987:execute$165
(define-fun |breathing_u 0| ((state |breathing_s|)) Bool (or (= ((_ extract 0 0) (|breathing#23| state)) #b1) (not true))) ; $auto$formalff.cc:987:execute$165
(define-fun |breathing#24| ((state |breathing_s|)) Bool (not (or  (= ((_ extract 0 0) (|breathing#18| state)) #b1) (= ((_ extract 1 1) (|breathing#18| state)) #b1) (= ((_ extract 2 2) (|breathing#18| state)) #b1) (= ((_ extract 3 3) (|breathing#18| state)) #b1) (= ((_ extract 4 4) (|breathing#18| state)) #b1) (= ((_ extract 5 5) (|breathing#18| state)) #b1) (= ((_ extract 6 6) (|breathing#18| state)) #b1) (= ((_ extract 7 7) (|breathing#18| state)) #b1)))) ; $eq$breathing.v:101$48_Y
(define-fun |breathing#25| ((state |breathing_s|)) Bool (and (or  (|breathing#22| state) false) (or  (|breathing#24| state) false))) ; $logic_and$breathing.v:101$49_Y
(define-fun |breathing#26| ((state |breathing_s|)) Bool (not (or  (|breathing#25| state) false))) ; $logic_not$breathing.v:101$50_Y
; yosys-smt2-assert 0 _witness_.check_assert_breathing_v_101_47 breathing.v:101.13-101.52
(define-fun |breathing_a 0| ((state |breathing_s|)) Bool (or (|breathing#26| state) (not true))) ; _witness_.check_assert_breathing_v_101_47
(define-fun |breathing#27| ((state |breathing_s|)) Bool (= (|breathing#18| state) #b11111111)) ; $eq$breathing.v:104$52_Y
(define-fun |breathing#28| ((state |breathing_s|)) Bool (distinct (|breathing#21| state) #b11111111)) ; $ne$breathing.v:104$53_Y
(define-fun |breathing#29| ((state |breathing_s|)) Bool (and (or  (|breathing#27| state) false) (or  (|breathing#28| state) false))) ; $logic_and$breathing.v:104$54_Y
(define-fun |breathing#30| ((state |breathing_s|)) (_ BitVec 1) (ite (|breathing#29| state) (ite (|breathing#22| state) #b1 #b0) #b1)) ; $ternary$breathing.v:104$55_Y
; yosys-smt2-assert 1 _witness_.check_assert_breathing_v_104_51 breathing.v:104.13-104.79
(define-fun |breathing_a 1| ((state |breathing_s|)) Bool (or (= ((_ extract 0 0) (|breathing#30| state)) #b1) (not true))) ; _witness_.check_assert_breathing_v_104_51
; yosys-smt2-assert 2 _witness_.check_assert_breathing_v_83_29 breathing.v:83.21-83.60
(define-fun |breathing_a 2| ((state |breathing_s|)) Bool (or (= ((_ extract 0 0) (|breathing#7| state)) #b1) (not (= ((_ extract 0 0) (|breathing#2| state)) #b1)))) ; _witness_.check_assert_breathing_v_83_29
; yosys-smt2-assert 3 _witness_.check_assert_breathing_v_86_32 breathing.v:86.21-86.60
(define-fun |breathing_a 3| ((state |breathing_s|)) Bool (or (= ((_ extract 0 0) (|breathing#4| state)) #b1) (not (= ((_ extract 0 0) (|breathing#3| state)) #b1)))) ; _witness_.check_assert_breathing_v_86_32
; yosys-smt2-assert 4 _witness_.check_assert_breathing_v_90_36 breathing.v:90.21-90.78
(define-fun |breathing_a 4| ((state |breathing_s|)) Bool (or (= ((_ extract 0 0) (|breathing#5| state)) #b1) (not (= ((_ extract 0 0) (|breathing#0| state)) #b1)))) ; _witness_.check_assert_breathing_v_90_36
; yosys-smt2-assert 5 _witness_.check_assert_breathing_v_94_42 breathing.v:94.21-94.78
(define-fun |breathing_a 5| ((state |breathing_s|)) Bool (or (= ((_ extract 0 0) (|breathing#6| state)) #b1) (not (= ((_ extract 0 0) (|breathing#1| state)) #b1)))) ; _witness_.check_assert_breathing_v_94_42
(define-fun |breathing#31| ((state |breathing_s|)) Bool (not (or  (= ((_ extract 0 0) (|breathing#16| state)) #b1) (= ((_ extract 1 1) (|breathing#16| state)) #b1) (= ((_ extract 2 2) (|breathing#16| state)) #b1) (= ((_ extract 3 3) (|breathing#16| state)) #b1) (= ((_ extract 4 4) (|breathing#16| state)) #b1) (= ((_ extract 5 5) (|breathing#16| state)) #b1) (= ((_ extract 6 6) (|breathing#16| state)) #b1) (= ((_ extract 7 7) (|breathing#16| state)) #b1) (= ((_ extract 8 8) (|breathing#16| state)) #b1) (= ((_ extract 9 9) (|breathing#16| state)) #b1) (= ((_ extract 10 10) (|breathing#16| state)) #b1) (= ((_ extract 11 11) (|breathing#16| state)) #b1) (= ((_ extract 12 12) (|breathing#16| state)) #b1) (= ((_ extract 13 13) (|breathing#16| state)) #b1) (= ((_ extract 14 14) (|breathing#16| state)) #b1) (= ((_ extract 15 15) (|breathing#16| state)) #b1) (= ((_ extract 16 16) (|breathing#16| state)) #b1) (= ((_ extract 17 17) (|breathing#16| state)) #b1) (= ((_ extract 18 18) (|breathing#16| state)) #b1) (= ((_ extract 19 19) (|breathing#16| state)) #b1) (= ((_ extract 20 20) (|breathing#16| state)) #b1) (= ((_ extract 21 21) (|breathing#16| state)) #b1) (= ((_ extract 22 22) (|breathing#16| state)) #b1) (= ((_ extract 23 23) (|breathing#16| state)) #b1) (= ((_ extract 24 24) (|breathing#16| state)) #b1) (= ((_ extract 25 25) (|breathing#16| state)) #b1) (= ((_ extract 26 26) (|breathing#16| state)) #b1)))) ; $eq$breathing.v:75$61_Y
(define-fun |breathing#32| ((state |breathing_s|)) Bool (|breathing_is| state)) ; $auto$rtlil.cc:3182:And$118
; yosys-smt2-assume 1 _witness_.check_assume_breathing_v_75_60 breathing.v:75.13-75.40
(define-fun |breathing_u 1| ((state |breathing_s|)) Bool (or (|breathing#31| state) (not (|breathing#32| state)))) ; _witness_.check_assume_breathing_v_75_60
(define-fun |breathing#33| ((state |breathing_s|)) Bool (not (or  (= ((_ extract 0 0) (|breathing#21| state)) #b1) (= ((_ extract 1 1) (|breathing#21| state)) #b1) (= ((_ extract 2 2) (|breathing#21| state)) #b1) (= ((_ extract 3 3) (|breathing#21| state)) #b1) (= ((_ extract 4 4) (|breathing#21| state)) #b1) (= ((_ extract 5 5) (|breathing#21| state)) #b1) (= ((_ extract 6 6) (|breathing#21| state)) #b1) (= ((_ extract 7 7) (|breathing#21| state)) #b1)))) ; $eq$breathing.v:76$63_Y
; yosys-smt2-assume 2 _witness_.check_assume_breathing_v_76_62 breathing.v:76.13-76.37
(define-fun |breathing_u 2| ((state |breathing_s|)) Bool (or (|breathing#33| state) (not (|breathing#32| state)))) ; _witness_.check_assume_breathing_v_76_62
(define-fun |breathing#34| ((state |breathing_s|)) (_ BitVec 8) (bvadd (|breathing#21| state) #b00000001)) ; $0\pwm_counter[7:0]
(define-fun |breathing#35| ((state |breathing_s|)) (_ BitVec 27) (bvadd (|breathing#16| state) #b000000000000000000000000001)) ; $0\breath_counter[26:0]
(define-fun |breathing#36| ((state |breathing_s|)) Bool (bvuge (|breathing#18| state) (|breathing#9| state))) ; $ge$breathing.v:83$30_Y
(define-fun |breathing#37| ((state |breathing_s|)) Bool (not (or  (= ((_ extract 0 0) (|breathing#15| state)) #b1) (= ((_ extract 1 1) (|breathing#15| state)) #b1) (= ((_ extract 2 2) (|breathing#15| state)) #b1) (= ((_ extract 3 3) (|breathing#15| state)) #b1) (= ((_ extract 4 4) (|breathing#15| state)) #b1) (= ((_ extract 5 5) (|breathing#15| state)) #b1) (= ((_ extract 6 6) (|breathing#15| state)) #b1) (= ((_ extract 7 7) (|breathing#15| state)) #b1)))) ; $eq$breathing.v:94$44_Y
(define-fun |breathing#38| ((state |breathing_s|)) Bool (and (or  (|breathing#24| state) false) (or  (|breathing#37| state) false))) ; $logic_and$breathing.v:94$45_Y
(define-fun |breathing#39| ((state |breathing_s|)) Bool (= (|breathing#13| state) #b11111111)) ; $eq$breathing.v:90$38_Y
(define-fun |breathing#40| ((state |breathing_s|)) Bool (and (or  (|breathing#27| state) false) (or  (|breathing#39| state) false))) ; $logic_and$breathing.v:90$39_Y
(define-fun |breathing#41| ((state |breathing_s|)) Bool (bvule (|breathing#18| state) (|breathing#11| state))) ; $le$breathing.v:86$33_Y
(define-fun |breathing#42| ((state |breathing_s|)) Bool (and (or  (= ((_ extract 26 26) (|breathing#16| state)) #b1) false) (or  (= ((_ extract 0 0) (|breathing#10| state)) #b1) false))) ; $logic_and$breathing.v:85$31_Y
(define-fun |breathing#43| ((state |breathing_s|)) (_ BitVec 1) (ite (|breathing#42| state) #b1 #b0)) ; $procmux$72_Y
(define-fun |breathing#44| ((state |breathing_s|)) (_ BitVec 1) (ite (= ((_ extract 0 0) (|breathing#20| state)) #b1) (|breathing#43| state) #b0)) ; $assert$breathing.v:86$32_EN
(define-fun |breathing#45| ((state |breathing_s|)) Bool (not (or  (= ((_ extract 26 26) (|breathing#16| state)) #b1) false))) ; $logic_not$breathing.v:82$26_Y
(define-fun |breathing#46| ((state |breathing_s|)) Bool (not (or  (= ((_ extract 0 0) (|breathing#8| state)) #b1) false))) ; $logic_not$breathing.v:82$27_Y
(define-fun |breathing#47| ((state |breathing_s|)) Bool (and (or  (|breathing#45| state) false) (or  (|breathing#46| state) false))) ; $logic_and$breathing.v:82$28_Y
(define-fun |breathing#48| ((state |breathing_s|)) (_ BitVec 1) (ite (|breathing#47| state) #b1 #b0)) ; $procmux$76_Y
(define-fun |breathing#49| ((state |breathing_s|)) (_ BitVec 1) (ite (= ((_ extract 0 0) (|breathing#20| state)) #b1) (|breathing#48| state) #b0)) ; $assert$breathing.v:83$29_EN
(define-fun |breathing#50| ((state |breathing_s|)) Bool (and (or  (|breathing#45| state) false) (or  (= ((_ extract 0 0) (|breathing#14| state)) #b1) false))) ; $logic_and$breathing.v:93$41_Y
(define-fun |breathing#51| ((state |breathing_s|)) (_ BitVec 1) (ite (|breathing#50| state) #b1 #b0)) ; $procmux$64_Y
(define-fun |breathing#52| ((state |breathing_s|)) (_ BitVec 1) (ite (= ((_ extract 0 0) (|breathing#20| state)) #b1) (|breathing#51| state) #b0)) ; $assert$breathing.v:94$42_EN
(define-fun |breathing#53| ((state |breathing_s|)) Bool (not (or  (= ((_ extract 0 0) (|breathing#12| state)) #b1) false))) ; $logic_not$breathing.v:89$34_Y
(define-fun |breathing#54| ((state |breathing_s|)) Bool (and (or  (= ((_ extract 26 26) (|breathing#16| state)) #b1) false) (or  (|breathing#53| state) false))) ; $logic_and$breathing.v:89$35_Y
(define-fun |breathing#55| ((state |breathing_s|)) (_ BitVec 1) (ite (|breathing#54| state) #b1 #b0)) ; $procmux$68_Y
(define-fun |breathing#56| ((state |breathing_s|)) (_ BitVec 1) (ite (= ((_ extract 0 0) (|breathing#20| state)) #b1) (|breathing#55| state) #b0)) ; $assert$breathing.v:90$36_EN
(define-fun |breathing_a| ((state |breathing_s|)) Bool (and
  (|breathing_a 0| state)
  (|breathing_a 1| state)
  (|breathing_a 2| state)
  (|breathing_a 3| state)
  (|breathing_a 4| state)
  (|breathing_a 5| state)
))
(define-fun |breathing_u| ((state |breathing_s|)) Bool (and
  (|breathing_u 0| state)
  (|breathing_u 1| state)
  (|breathing_u 2| state)
))
(define-fun |breathing_i| ((state |breathing_s|)) Bool (and
  (= (= ((_ extract 0 0) (|breathing#0| state)) #b1) false) ; $auto$async2sync.cc:107:execute$103
  (= (= ((_ extract 0 0) (|breathing#1| state)) #b1) false) ; $auto$async2sync.cc:107:execute$109
  (= (= ((_ extract 0 0) (|breathing#2| state)) #b1) false) ; $auto$async2sync.cc:107:execute$91
  (= (= ((_ extract 0 0) (|breathing#3| state)) #b1) false) ; $auto$async2sync.cc:107:execute$97
  (= (= ((_ extract 0 0) (|breathing#4| state)) #b1) true) ; $auto$async2sync.cc:116:execute$101
  (= (= ((_ extract 0 0) (|breathing#5| state)) #b1) true) ; $auto$async2sync.cc:116:execute$107
  (= (= ((_ extract 0 0) (|breathing#6| state)) #b1) true) ; $auto$async2sync.cc:116:execute$113
  (= (= ((_ extract 0 0) (|breathing#7| state)) #b1) true) ; $auto$async2sync.cc:116:execute$95
  (= (|breathing#16| state) #b000000000000000000000000000) ; breath_counter
  (= (= ((_ extract 0 0) (|breathing#20| state)) #b1) false) ; f_past_valid
  (= (|breathing#21| state) #b00000000) ; pwm_counter
))
(define-fun |breathing_h| ((state |breathing_s|)) Bool true)
(define-fun |breathing_t| ((state |breathing_s|) (next_state |breathing_s|)) Bool (and
  (= (|breathing#34| state) (|breathing#21| next_state)) ; $procdff$90 \pwm_counter
  (= #b1 (|breathing#20| next_state)) ; $procdff$88 \f_past_valid
  (= (|breathing#35| state) (|breathing#16| next_state)) ; $procdff$89 \breath_counter
  (= (|breathing#18| state) (|breathing#15| next_state)) ; $procdff$87 \_witness_.anyinit_procdff_87
  (= ((_ extract 26 26) (|breathing#16| state)) (|breathing#14| next_state)) ; $procdff$86 \_witness_.anyinit_procdff_86
  (= (|breathing#18| state) (|breathing#13| next_state)) ; $procdff$85 \_witness_.anyinit_procdff_85
  (= ((_ extract 26 26) (|breathing#16| state)) (|breathing#12| next_state)) ; $procdff$84 \_witness_.anyinit_procdff_84
  (= (|breathing#18| state) (|breathing#11| next_state)) ; $procdff$83 \_witness_.anyinit_procdff_83
  (= ((_ extract 26 26) (|breathing#16| state)) (|breathing#10| next_state)) ; $procdff$82 \_witness_.anyinit_procdff_82
  (= (|breathing#18| state) (|breathing#9| next_state)) ; $procdff$81 \_witness_.anyinit_procdff_81
  (= ((_ extract 26 26) (|breathing#16| state)) (|breathing#8| next_state)) ; $procdff$80 \_witness_.anyinit_procdff_80
  (= (ite (|breathing#36| state) #b1 #b0) (|breathing#7| next_state)) ; $auto$async2sync.cc:118:execute$96 $auto$async2sync.cc:116:execute$95
  (= (ite (|breathing#38| state) #b1 #b0) (|breathing#6| next_state)) ; $auto$async2sync.cc:118:execute$114 $auto$async2sync.cc:116:execute$113
  (= (ite (|breathing#40| state) #b1 #b0) (|breathing#5| next_state)) ; $auto$async2sync.cc:118:execute$108 $auto$async2sync.cc:116:execute$107
  (= (ite (|breathing#41| state) #b1 #b0) (|breathing#4| next_state)) ; $auto$async2sync.cc:118:execute$102 $auto$async2sync.cc:116:execute$101
  (= (|breathing#44| state) (|breathing#3| next_state)) ; $auto$async2sync.cc:110:execute$99 $auto$async2sync.cc:107:execute$97
  (= (|breathing#49| state) (|breathing#2| next_state)) ; $auto$async2sync.cc:110:execute$93 $auto$async2sync.cc:107:execute$91
  (= (|breathing#52| state) (|breathing#1| next_state)) ; $auto$async2sync.cc:110:execute$111 $auto$async2sync.cc:107:execute$109
  (= (|breathing#56| state) (|breathing#0| next_state)) ; $auto$async2sync.cc:110:execute$105 $auto$async2sync.cc:107:execute$103
)) ; end of module breathing
; yosys-smt2-topmod breathing
; end of yosys output
